c Created with the Wolfram Language : www.wolfram.com
c 
p edge 70 373
e 3 4
e 3 5
e 4 5
e 1 8
e 7 9
e 1 10
e 3 10
e 4 10
e 5 10
e 6 10
e 7 10
e 2 11
e 4 11
e 9 11
e 4 12
e 5 13
e 6 13
e 11 13
e 1 14
e 1 16
e 7 16
e 1 17
e 6 17
e 7 17
e 9 17
e 13 17
e 14 17
e 2 19
e 6 19
e 18 19
e 6 20
e 13 20
e 3 21
e 13 22
e 18 22
e 19 22
e 5 23
e 7 23
e 10 23
e 15 24
e 18 24
e 21 24
e 22 24
e 6 25
e 16 25
e 20 25
e 5 26
e 15 26
e 19 26
e 5 27
e 15 27
e 22 27
e 24 27
e 12 28
e 17 28
e 20 28
e 17 29
e 22 29
e 23 29
e 1 30
e 2 30
e 4 30
e 10 30
e 20 31
e 24 31
e 25 31
e 1 32
e 8 32
e 17 32
e 23 32
e 25 32
e 27 32
e 1 33
e 9 33
e 12 33
e 19 33
e 28 33
e 30 33
e 1 34
e 10 34
e 18 34
e 20 34
e 6 35
e 19 35
e 27 35
e 5 36
e 9 36
e 16 36
e 18 36
e 28 36
e 33 36
e 7 37
e 12 37
e 16 37
e 22 37
e 2 38
e 10 38
e 22 38
e 34 38
e 35 38
e 16 39
e 24 39
e 32 39
e 34 39
e 38 39
e 14 40
e 18 40
e 34 40
e 2 41
e 4 41
e 10 41
e 11 41
e 12 41
e 14 41
e 17 41
e 23 41
e 26 41
e 32 41
e 36 41
e 3 42
e 17 42
e 19 42
e 25 42
e 28 42
e 29 42
e 37 42
e 1 43
e 18 43
e 38 43
e 1 44
e 3 44
e 9 44
e 21 44
e 35 44
e 38 44
e 9 45
e 19 45
e 20 45
e 21 45
e 27 45
e 28 45
e 35 45
e 41 45
e 44 45
e 8 46
e 11 46
e 35 46
e 38 46
e 2 47
e 6 47
e 16 47
e 18 47
e 21 47
e 25 47
e 32 47
e 36 47
e 38 47
e 39 47
e 13 48
e 23 48
e 3 49
e 5 49
e 15 49
e 16 49
e 17 49
e 19 49
e 20 49
e 36 49
e 39 49
e 46 49
e 6 50
e 13 50
e 17 50
e 23 50
e 27 50
e 29 50
e 45 50
e 8 51
e 20 51
e 21 51
e 29 51
e 32 51
e 2 52
e 3 52
e 5 52
e 7 52
e 8 52
e 15 52
e 17 52
e 18 52
e 26 52
e 46 52
e 49 52
e 2 53
e 6 53
e 8 53
e 42 53
e 11 54
e 15 54
e 22 54
e 27 54
e 33 54
e 34 54
e 36 54
e 44 54
e 47 54
e 52 54
e 53 54
e 4 55
e 7 55
e 23 55
e 26 55
e 28 55
e 32 55
e 38 55
e 41 55
e 45 55
e 49 55
e 8 56
e 21 56
e 23 56
e 25 56
e 27 56
e 32 56
e 39 56
e 41 56
e 15 57
e 27 57
e 40 57
e 43 57
e 49 57
e 51 57
e 9 58
e 10 58
e 12 58
e 13 58
e 19 58
e 23 58
e 28 58
e 32 58
e 40 58
e 41 58
e 48 58
e 50 58
e 56 58
e 1 59
e 5 59
e 9 59
e 16 59
e 21 59
e 23 59
e 25 59
e 26 59
e 30 59
e 34 59
e 46 59
e 50 59
e 54 59
e 24 60
e 34 60
e 36 60
e 38 60
e 48 60
e 49 60
e 52 60
e 53 60
e 55 60
e 56 60
e 2 61
e 3 61
e 13 61
e 16 61
e 26 61
e 38 61
e 44 61
e 58 61
e 3 62
e 18 62
e 27 62
e 33 62
e 38 62
e 52 62
e 8 63
e 11 63
e 15 63
e 16 63
e 18 63
e 21 63
e 32 63
e 34 63
e 38 63
e 43 63
e 44 63
e 48 63
e 60 63
e 6 64
e 7 64
e 10 64
e 16 64
e 19 64
e 29 64
e 31 64
e 35 64
e 50 64
e 56 64
e 5 65
e 10 65
e 11 65
e 17 65
e 20 65
e 26 65
e 29 65
e 36 65
e 42 65
e 44 65
e 51 65
e 52 65
e 61 65
e 3 66
e 6 66
e 8 66
e 14 66
e 19 66
e 28 66
e 29 66
e 32 66
e 36 66
e 39 66
e 40 66
e 44 66
e 46 66
e 47 66
e 49 66
e 51 66
e 53 66
e 57 66
e 61 66
e 64 66
e 65 66
e 4 67
e 8 67
e 15 67
e 22 67
e 25 67
e 28 67
e 9 68
e 18 68
e 22 68
e 24 68
e 31 68
e 32 68
e 42 68
e 43 68
e 46 68
e 55 68
e 63 68
e 66 68
e 2 69
e 5 69
e 7 69
e 18 69
e 43 69
e 66 69
e 2 70
e 32 70
e 40 70
e 41 70
e 48 70
e 51 70
e 57 70
e 58 70
e 61 70
e 69 70
